p wcnf 184 216 217 
1 107 58 0 
1 83 -42 0 
1 -127 94 0 
1 16 -126 0 
1 93 79 0 
1 -113 -25 0 
1 -174 -123 0 
1 80 -131 0 
1 126 116 0 
1 152 -24 0 
1 106 91 0 
1 -28 97 0 
1 -22 -52 0 
1 -80 -14 0 
1 -180 -107 0 
1 33 -165 0 
1 -86 -88 0 
1 138 -16 0 
1 63 -14 0 
1 104 -100 0 
1 -167 70 0 
1 -97 11 0 
1 59 86 0 
1 183 -155 0 
1 159 -11 0 
1 56 -7 0 
1 -170 -132 0 
1 26 98 0 
1 103 -183 0 
1 -78 94 0 
1 -163 -111 0 
1 96 24 0 
1 -143 -128 0 
1 89 102 0 
1 119 -166 0 
1 -5 -48 0 
1 -85 -64 0 
1 42 40 0 
1 51 178 0 
1 -111 126 0 
1 -32 36 0 
1 53 175 0 
1 28 4 0 
1 -63 149 0 
1 -176 179 0 
1 112 173 0 
1 -76 -127 0 
1 180 135 0 
1 133 168 0 
1 81 36 0 
1 -33 109 0 
1 15 -36 0 
1 13 109 0 
1 137 -124 0 
1 -152 -97 0 
1 49 172 0 
1 -132 143 0 
1 75 -116 0 
1 17 -170 0 
1 -49 -24 0 
1 -177 46 0 
1 128 25 0 
1 183 58 0 
1 -38 181 0 
1 5 -180 0 
1 -121 -100 0 
1 110 -50 0 
1 -56 173 0 
1 -79 -9 0 
1 172 -29 0 
1 -91 -25 0 
1 132 -179 0 
1 152 -145 0 
1 -57 165 0 
1 -110 -127 0 
1 -6 131 0 
1 15 -112 0 
1 167 -10 0 
1 49 -71 0 
1 -100 -141 0 
1 -16 121 0 
1 -152 167 0 
1 118 67 0 
1 156 95 0 
1 173 -49 0 
1 -49 13 0 
1 -35 96 0 
1 -82 19 0 
1 103 -122 0 
1 -184 129 0 
1 -145 -19 0 
1 -109 -80 0 
1 10 177 0 
1 -4 136 0 
1 181 74 0 
1 -9 -86 0 
1 -135 147 0 
1 -112 -64 0 
1 24 66 0 
1 -142 -20 0 
1 137 -182 0 
1 -104 -54 0 
1 -128 155 0 
1 155 -93 0 
1 -93 33 0 
1 63 151 0 
1 14 142 0 
1 44 38 0 
1 147 123 0 
1 93 -134 0 
1 -50 21 0 
1 153 65 0 
1 120 137 0 
1 -117 -161 0 
1 -83 17 0 
1 -9 63 0 
1 -39 -33 0 
1 -102 -80 0 
1 -28 -21 0 
1 182 110 0 
1 -5 -31 0 
1 162 -117 0 
1 -59 -36 0 
1 184 -152 0 
1 20 -155 0 
1 155 -58 0 
1 19 147 0 
1 173 116 0 
1 108 -17 0 
1 35 -102 0 
1 -12 -108 0 
1 176 45 0 
1 -167 94 0 
1 -94 124 0 
1 -9 120 0 
1 97 -151 0 
1 75 149 0 
1 12 -125 0 
1 148 153 0 
1 -3 -25 0 
1 -107 155 0 
1 -71 -70 0 
1 -169 77 0 
1 13 -115 0 
1 -119 22 0 
1 120 178 0 
1 144 72 0 
1 -22 -47 0 
1 -64 -136 0 
1 9 72 0 
1 -87 177 0 
1 36 171 0 
1 -27 -87 0 
1 147 -118 0 
1 -150 166 0 
1 130 -57 0 
1 98 -112 0 
1 137 73 0 
1 -146 27 0 
1 127 -155 0 
1 74 -140 0 
1 59 122 0 
1 -156 143 0 
1 64 -30 0 
1 -176 101 0 
1 31 43 0 
1 -175 -144 0 
1 -6 -163 0 
1 -108 -13 0 
1 -94 -155 0 
1 -167 -63 0 
1 -18 127 0 
1 30 -15 0 
1 34 -114 0 
1 10 -106 0 
1 -68 154 0 
1 9 -21 0 
1 129 10 0 
1 -155 43 0 
1 -90 -163 0 
1 -69 95 0 
1 -100 -131 0 
1 -23 122 0 
1 109 -147 0 
1 -135 158 0 
1 -142 127 0 
1 -121 110 0 
1 87 -84 0 
1 -104 -85 0 
1 50 178 0 
1 38 108 0 
1 69 -113 0 
1 48 182 0 
1 -7 61 0 
1 -49 72 0 
1 77 46 0 
1 -23 173 0 
1 38 65 0 
1 -18 -27 0 
1 18 -125 0 
1 -167 -141 0 
1 86 -115 0 
1 11 2 0 
1 126 -123 0 
1 -149 90 0 
1 167 -61 0 
1 100 175 0 
1 112 34 0 
1 163 -105 0 
1 135 -132 0 
1 -80 38 0 
1 -47 7 0 
1 -163 47 0 
1 167 -148 0 
1 131 -103 0 
1 -94 -95 0 
